#######################################################
#CASTEP cell file: /data/chem-amais/hert5155/GAP_to_MTP/DFT_ref/compression_MD/0.cell
#Created using the Atomic Simulation Environment (ASE)#
#######################################################

%BLOCK LATTICE_CART
10.021600  0.000000  0.000000
 0.000000 10.021600  0.000000
 0.000000  0.000000 10.021600
%ENDBLOCK LATTICE_CART

%BLOCK POSITIONS_ABS
Si  1.029820  1.496435  0.186702
Si  1.279297  3.707822  1.098147
Si  4.247926  0.786946  2.801398
Si  2.729212  3.616134  3.045394
Si  1.051386  0.779961  4.258789
Si  2.726998  2.291188  4.924193
Si  4.649471  4.593962  4.234637
Si  4.208691  2.902095  1.311016
Si  2.034385  0.464391  1.978695
Si  1.163327  4.705652  4.918000
Si  0.049948  3.978315  2.972687
Si  7.127232  0.715893  0.894107
Si  7.377621  0.769889  3.127060
Si  6.462900  3.317360  1.776619
Si  8.496773  4.206927  1.121617
Si  5.835888  2.344283  3.960045
Si  9.223269  2.049337  3.816827
Si  7.476084  3.523575  4.914252
Si  2.231660  6.237354  1.744911
Si  0.603691  7.330450  0.245239
Si  0.138849  6.750650  2.546208
Si  3.016983  8.487183  0.844580
Si  3.972723  8.986269  4.414795
Si  3.894223  6.984995  3.114072
Si  0.169676  9.106488  2.688875
Si  1.531701  7.395951  4.230548
Si  5.193835  5.700657  0.096047
Si  5.242830  9.278138  1.351633
Si  8.166973  6.608864  0.888545
Si  5.935844  5.578714  2.315711
Si  6.660816  7.864260  2.436792
Si  9.324538  9.926074  0.634768
Si  8.542512  5.458455  3.923677
Si  6.596618  6.698868  4.534974
Si  8.097623  8.948397  3.771288
Si  4.589763  1.860791  6.032312
Si  1.998237  1.318362  8.111002
Si  4.192596  1.592071  9.292709
Si  1.532453  3.202974  6.704430
Si  3.100893  4.646795  9.969658
Si  3.101956  4.820400  7.529970
Si  4.964310  3.287265  7.843846
Si  8.790346  2.335965  9.699155
Si  6.779693  3.958732  9.194768
Si  8.500532  1.634072  6.194672
Si  6.505311  0.658770  6.975244
Si  9.514297  3.237037  7.753522
Si  5.831619  0.057564  9.170846
Si  6.219495  4.880820  6.248488
Si  3.581179  9.711351  6.850345
Si  0.450752  5.176607  9.215252
Si  0.030486  9.990774  6.848250
Si  3.122530  5.922465  5.383774
Si  1.727994  9.108412  5.558130
Si  2.951000  8.232063  8.626814
Si  1.199565  6.809066  7.653356
Si  4.757294  7.019269  6.836345
Si  9.681647  6.399062  5.825285
Si  5.954484  8.714623  5.811947
Si  8.329613  8.294467  6.076327
Si  8.109429  5.241307  7.601263
Si  5.362809  7.756638  9.089431
Si  7.701660  7.317893  8.694179
Si  9.507742  8.745480  8.689759
%ENDBLOCK POSITIONS_ABS

%BLOCK SPECIES_POT
Si /data/chem-amais/hert5155/GAP_to_MTP/DFT_ref/Si_OTF.usp
%ENDBLOCK SPECIES_POT

KPOINTS_MP_SPACING: 0.03 
