#######################################################
#CASTEP cell file: /home/magnetite/vld/hert5155/applications/testing-framework/example_models/P/run_dir/run_model-CASTEP_ASE_JDM-test-RSS/RSS/0_0.cell
#Created using the Atomic Simulation Environment (ASE)#
#######################################################

%BLOCK LATTICE_CART
 6.241410 -0.000000 -0.000000
 3.120705  6.755450  0.000000
 3.120705  1.861949  6.493786
%ENDBLOCK LATTICE_CART

%BLOCK POSITIONS_ABS
P  7.308270  7.835282  4.804297
P  5.174550  1.839617  0.286164
P 11.415960  7.835282  4.804297
P  1.066860  1.839617  0.286164
P  4.238831  1.552957  2.856057
P  8.243989  5.443940  5.788172
P  2.002579  1.552957  2.856057
P 10.480241  5.443940  5.788172
P  7.484932  3.238562  1.961951
P  4.997888  5.838824  3.921422
P  4.997888  3.238562  1.961951
P  7.484932  5.838824  3.921422
%ENDBLOCK POSITIONS_ABS

%BLOCK SPECIES_POT
P /home/magnetite/vld/hert5155/applications/testing-framework/example_models/P/models/CASTEP_ASE_JDM/P_OTF.usp
%ENDBLOCK SPECIES_POT

%BLOCK IONIC_CONSTRAINTS

%ENDBLOCK IONIC_CONSTRAINTS

KPOINTS_MP_SPACING: 0.05 
