#######################################################
#CASTEP cell file: /home/magnetite/vld/hert5155/applications/testing-framework/example_models/P/run_dir/run_model-CASTEP_ASE_JDM-test-RSS/RSS/1_0.cell
#Created using the Atomic Simulation Environment (ASE)#
#######################################################

%BLOCK LATTICE_CART
 9.543120  0.000000  0.000000
-4.771560  8.264584  0.000000
 0.000000  0.000000 11.192060
%ENDBLOCK LATTICE_CART

%BLOCK POSITIONS_ABS
P  1.030309  2.107517  7.636500
P -3.461551  6.318552  3.905814
P  2.431242  8.103099  0.175127
P  9.288887  0.136822  2.501270
P  0.245608  0.151762  9.962643
P  4.780186  7.976001  6.231957
P -1.072858  8.080387  6.343529
P  2.762690  5.153513  2.612842
P -1.689832  3.295268 10.074215
P  4.090417  6.882547 10.911848
P  8.686813  1.280906  7.181161
P  1.537451  0.101131  3.450474
P  1.013632  2.178867 10.089243
P -3.391422  6.297320  6.358556
P  2.377790  8.052982  2.627869
P  3.816473  4.733076 10.131681
P  6.962288  2.592884  6.400994
P  3.535919  0.938625  2.670307
P  1.885722  3.378888  4.835216
P -2.788219  4.942057  1.104529
P  0.902496  8.208224  8.565903
P  6.687684  1.097825  9.876312
P  2.378462  1.923967  6.145626
P  5.248533  5.242792  2.414939
P  2.550772  2.657051  3.083615
P  5.797248  4.727025 10.544988
P  5.966660  0.880508  6.814302
P  6.620595  1.257603  4.894468
P  2.550378  1.902179  1.163781
P  5.143706  5.104802  8.625155
P  3.841100  5.272268  0.929771
P  7.416929  2.301960  8.391145
P  3.056652  0.690356  4.660458
P  4.285779  3.477392  2.399480
P  5.640180  2.814295  9.860854
P  4.388721  1.972898  6.130167
P  1.846568  6.099204  7.929993
P -0.412779  3.615808  4.199306
P -1.433789  6.814157  0.468620
P  4.522548  2.756303  4.285514
P  4.897315  2.969792  0.554827
P  4.894818  2.538489  8.016200
%ENDBLOCK POSITIONS_ABS

%BLOCK SPECIES_POT
P /home/magnetite/vld/hert5155/applications/testing-framework/example_models/P/models/CASTEP_ASE_JDM/P_OTF.usp
%ENDBLOCK SPECIES_POT

%BLOCK IONIC_CONSTRAINTS

%ENDBLOCK IONIC_CONSTRAINTS

KPOINTS_MP_SPACING: 0.05 
